p cnf 1269 1721
c 19 q(1,7)
c 20 q(2,8)
c 22 q(1,6)
c 23 q(2,7)
c 24 q(3,8)
c 26 q(1,5)
c 27 q(2,6)
c 28 q(3,7)
c 29 q(4,8)
c 31 q(1,4)
c 32 q(2,5)
c 33 q(3,6)
c 34 q(4,7)
c 35 q(5,8)
c 37 q(1,3)
c 38 q(2,4)
c 39 q(3,5)
c 40 q(4,6)
c 41 q(5,7)
c 42 q(6,8)
c 44 q(1,2)
c 45 q(2,3)
c 46 q(3,4)
c 47 q(4,5)
c 48 q(5,6)
c 49 q(6,7)
c 50 q(7,8)
c 52 q(1,1)
c 53 q(2,2)
c 54 q(3,3)
c 55 q(4,4)
c 56 q(5,5)
c 57 q(6,6)
c 58 q(7,7)
c 59 q(8,8)
c 61 q(2,1)
c 62 q(3,2)
c 63 q(4,3)
c 64 q(5,4)
c 65 q(6,5)
c 66 q(7,6)
c 67 q(8,7)
c 69 q(3,1)
c 70 q(4,2)
c 71 q(5,3)
c 72 q(6,4)
c 73 q(7,5)
c 74 q(8,6)
c 76 q(4,1)
c 77 q(5,2)
c 78 q(6,3)
c 79 q(7,4)
c 80 q(8,5)
c 82 q(5,1)
c 83 q(6,2)
c 84 q(7,3)
c 85 q(8,4)
c 87 q(6,1)
c 88 q(7,2)
c 89 q(8,3)
c 91 q(7,1)
c 92 q(8,2)
c 100 q(1,8)
c 101 q(8,1)
2 0
3 0
4 0
5 0
6 0
7 0
8 0
9 0
10 0
11 0
12 0
13 0
14 0
15 0
16 0
17 0
-18 0
-21 0
-25 0
-30 0
-36 0
-43 0
-51 0
-60 0
-68 0
-75 0
-81 0
-86 0
-90 0
-93 0
-94 0
-95 0
-96 0
-97 0
-98 0
-99 0
-102 0
-103 0
-104 0
-105 0
-106 0
-107 0
200 0
110 0
108 0
-109 0
217 0
113 0
111 0
-112 0
234 0
116 0
114 0
-115 0
251 0
119 0
117 0
-118 0
268 0
122 0
120 0
-121 0
285 0
125 0
123 0
-124 0
302 0
128 0
126 0
-127 0
319 0
131 0
129 0
-130 0
336 0
134 0
132 0
-133 0
353 0
137 0
135 0
-136 0
370 0
140 0
138 0
-139 0
387 0
143 0
141 0
-142 0
404 0
146 0
144 0
-145 0
421 0
149 0
147 0
-148 0
438 0
152 0
150 0
-151 0
455 0
155 0
153 0
-154 0
-1 0
-472 0
-473 0
-474 0
-475 0
-476 0
-477 0
-478 0
-479 0
-480 0
-481 0
-482 0
-483 0
-484 0
-485 0
-486 0
-487 0
-488 0
-489 0
-490 0
-491 0
-492 0
-493 0
-494 0
-495 0
-496 0
-497 0
-498 0
-499 0
-500 0
-501 0
-502 0
-503 0
-504 0
-505 0
-506 0
-509 0
-512 0
-515 0
-518 0
-521 0
-522 0
-525 0
-528 0
-531 0
-534 0
-537 0
-540 0
-541 0
-544 0
-547 0
-550 0
-553 0
-556 0
-557 0
-558 0
-559 0
-560 0
-561 0
-562 0
-563 0
-564 0
-565 0
-566 0
-567 0
-568 0
-569 0
-570 0
-571 0
-572 0
-573 0
-574 0
-575 0
-576 0
-577 0
-578 0
-579 0
-580 0
-581 0
-582 0
-583 0
-584 0
-585 0
-586 0
-587 0
-588 0
-589 0
-590 0
-591 0
-592 0
-593 0
-594 0
-595 0
-596 0
-597 0
-598 0
-599 0
-600 0
-601 0
-602 0
-603 0
-604 0
-605 0
-606 0
-607 0
-608 0
-609 0
-610 0
-611 0
-612 0
-613 0
-614 0
-615 0
-616 0
-617 0
-618 0
-619 0
-620 0
-621 0
-622 0
-623 0
-624 0
-625 0
-628 0
-631 0
-634 0
-637 0
-640 0
-641 0
-644 0
-647 0
-650 0
-653 0
-656 0
-659 0
-660 0
-663 0
-666 0
-669 0
-672 0
-675 0
-676 0
-677 0
-678 0
-679 0
-680 0
-681 0
-682 0
-683 0
-684 0
-685 0
-686 0
-687 0
-688 0
-689 0
-690 0
-691 0
-692 0
-693 0
-694 0
-695 0
-696 0
-697 0
-698 0
-699 0
-700 0
-701 0
-702 0
-703 0
-704 0
-705 0
-706 0
-707 0
-708 0
-709 0
-726 0
-729 0
-732 0
-735 0
-738 0
-741 0
-744 0
-761 0
-764 0
-767 0
-770 0
-773 0
-776 0
-779 0
-796 0
-799 0
-802 0
-805 0
-808 0
-811 0
-814 0
-831 0
-834 0
-837 0
-840 0
-843 0
-846 0
-849 0
-866 0
-869 0
-872 0
-875 0
-878 0
-881 0
-884 0
-901 0
-904 0
-907 0
-910 0
-913 0
-916 0
-919 0
-936 0
-939 0
-942 0
-945 0
-948 0
-951 0
-954 0
-971 0
-974 0
-977 0
-980 0
-983 0
-986 0
-989 0
-1006 0
-1009 0
-1012 0
-1015 0
-1018 0
-1021 0
-1024 0
-1041 0
-1044 0
-1047 0
-1050 0
-1053 0
-1056 0
-1059 0
-1076 0
-1079 0
-1082 0
-1085 0
-1088 0
-1091 0
-1094 0
-1111 0
-1114 0
-1117 0
-1120 0
-1123 0
-1126 0
-1129 0
-1146 0
-1149 0
-1152 0
-1155 0
-1158 0
-1161 0
-1164 0
-1181 0
-1184 0
-1187 0
-1190 0
-1193 0
-1196 0
-1199 0
-1216 0
-1219 0
-1222 0
-1225 0
-1228 0
-1231 0
-1234 0
-1251 0
-1254 0
-1257 0
-1260 0
-1263 0
-1266 0
-1269 0
-162 0
-170 0
-177 0
-184 0
-192 0
-199 0
-216 0
-233 0
-250 0
-267 0
-284 0
-301 0
-318 0
-335 0
-352 0
-369 0
-386 0
-403 0
-420 0
-437 0
-454 0
-471 0
-1250 0
-1249 0
-1248 0
-1247 0
-1246 0
-1245 0
-1244 0
-1243 0
-1215 0
-1214 0
-1213 0
-1212 0
-1211 0
-1210 0
-1209 0
-1208 0
-1180 0
-1179 0
-1178 0
-1177 0
-1176 0
-1175 0
-1174 0
-1173 0
-1145 0
-1144 0
-1143 0
-1142 0
-1141 0
-1140 0
-1139 0
-1138 0
-1110 0
-1109 0
-1108 0
-1107 0
-1106 0
-1105 0
-1104 0
-1103 0
-1075 0
-1074 0
-1073 0
-1072 0
-1071 0
-1070 0
-1069 0
-1068 0
-1040 0
-1039 0
-1038 0
-1037 0
-1036 0
-1035 0
-1034 0
-1033 0
-1005 0
-1004 0
-1003 0
-1002 0
-1001 0
-1000 0
-999 0
-998 0
-970 0
-969 0
-968 0
-967 0
-966 0
-965 0
-964 0
-963 0
-935 0
-934 0
-933 0
-932 0
-931 0
-930 0
-929 0
-928 0
-900 0
-899 0
-898 0
-897 0
-896 0
-895 0
-894 0
-893 0
-865 0
-864 0
-863 0
-862 0
-861 0
-860 0
-859 0
-858 0
-830 0
-829 0
-828 0
-827 0
-826 0
-825 0
-824 0
-823 0
-795 0
-794 0
-793 0
-792 0
-791 0
-790 0
-789 0
-788 0
-760 0
-759 0
-758 0
-757 0
-756 0
-755 0
-754 0
-753 0
-725 0
-724 0
-723 0
-722 0
-721 0
-720 0
-719 0
-718 0
-1242 0
-1241 0
-1240 0
-1239 0
-1238 0
-1237 0
-1236 0
-1235 0
-1207 0
-1206 0
-1205 0
-1204 0
-1203 0
-1202 0
-1201 0
-1200 0
-1172 0
-1171 0
-1170 0
-1169 0
-1168 0
-1167 0
-1166 0
-1165 0
-1137 0
-1136 0
-1135 0
-1134 0
-1133 0
-1132 0
-1131 0
-1130 0
-1102 0
-1101 0
-1100 0
-1099 0
-1098 0
-1097 0
-1096 0
-1095 0
-1067 0
-1066 0
-1065 0
-1064 0
-1063 0
-1062 0
-1061 0
-1060 0
-201 0
-202 0
-203 0
-204 0
-205 0
-206 0
-207 0
-208 0
-1032 0
-218 0
-219 0
-220 0
-221 0
-222 0
-223 0
-224 0
-225 0
-1031 0
-235 0
-236 0
-237 0
-238 0
-239 0
-240 0
-241 0
-242 0
-1030 0
-252 0
-253 0
-254 0
-255 0
-256 0
-257 0
-258 0
-259 0
-1029 0
-269 0
-270 0
-271 0
-272 0
-273 0
-274 0
-275 0
-276 0
-1028 0
-286 0
-287 0
-288 0
-289 0
-290 0
-291 0
-292 0
-293 0
-1027 0
-303 0
-304 0
-305 0
-306 0
-307 0
-308 0
-309 0
-310 0
-1026 0
-320 0
-321 0
-322 0
-323 0
-324 0
-325 0
-326 0
-327 0
-1025 0
-337 0
-338 0
-339 0
-340 0
-341 0
-342 0
-343 0
-344 0
-997 0
-354 0
-355 0
-356 0
-357 0
-358 0
-359 0
-360 0
-361 0
-996 0
-371 0
-372 0
-373 0
-374 0
-375 0
-376 0
-377 0
-378 0
-995 0
-388 0
-389 0
-390 0
-391 0
-392 0
-393 0
-394 0
-395 0
-994 0
-405 0
-406 0
-407 0
-408 0
-409 0
-410 0
-411 0
-412 0
-993 0
-422 0
-423 0
-424 0
-425 0
-426 0
-427 0
-428 0
-429 0
-992 0
-439 0
-440 0
-441 0
-442 0
-443 0
-444 0
-445 0
-446 0
-991 0
-456 0
-457 0
-458 0
-459 0
-460 0
-461 0
-462 0
-463 0
-990 0
-962 0
-961 0
-960 0
-959 0
-958 0
-957 0
-956 0
-955 0
-927 0
-926 0
-925 0
-924 0
-923 0
-922 0
-921 0
-920 0
-892 0
-891 0
-890 0
-889 0
-888 0
-887 0
-886 0
-885 0
-857 0
-856 0
-855 0
-854 0
-853 0
-852 0
-851 0
-850 0
-822 0
-821 0
-820 0
-819 0
-818 0
-817 0
-816 0
-815 0
-787 0
-786 0
-785 0
-784 0
-783 0
-782 0
-781 0
-780 0
-752 0
-751 0
-750 0
-749 0
-748 0
-747 0
-746 0
-745 0
-717 0
-716 0
-715 0
-714 0
-713 0
-712 0
-711 0
-710 0
-1268 0
-1267 0
-1265 0
-1264 0
-1262 0
-1261 0
-1259 0
-1258 0
-727 0
-728 0
-730 0
-731 0
-733 0
-734 0
-736 0
-737 0
-739 0
-740 0
-742 0
-743 0
-1256 0
-1255 0
-1253 0
-1252 0
-1233 0
-1232 0
-1230 0
-1229 0
-762 0
-763 0
-765 0
-766 0
-768 0
-769 0
-771 0
-772 0
-774 0
-775 0
-777 0
-778 0
-1227 0
-1226 0
-1224 0
-1223 0
-1221 0
-1220 0
-1218 0
-1217 0
-797 0
-798 0
-800 0
-801 0
-803 0
-804 0
-806 0
-807 0
-809 0
-810 0
-812 0
-813 0
-1198 0
-1197 0
-1195 0
-1194 0
-1192 0
-1191 0
-1189 0
-1188 0
-832 0
-833 0
-835 0
-836 0
-838 0
-839 0
-841 0
-842 0
-844 0
-845 0
-847 0
-848 0
-1186 0
-1185 0
-1183 0
-1182 0
-1163 0
-1162 0
-1160 0
-1159 0
-867 0
-868 0
-870 0
-871 0
-873 0
-874 0
-876 0
-877 0
-879 0
-880 0
-882 0
-883 0
-1157 0
-1156 0
-1154 0
-1153 0
-1151 0
-1150 0
-1148 0
-1147 0
-902 0
-903 0
-905 0
-906 0
-908 0
-909 0
-911 0
-912 0
-914 0
-915 0
-917 0
-918 0
-209 0
-226 0
-243 0
-260 0
-277 0
-294 0
-1128 0
-1127 0
-937 0
-311 0
-940 0
-941 0
-943 0
-944 0
-946 0
-947 0
-949 0
-950 0
-952 0
-953 0
-938 0
-1125 0
-1124 0
-1122 0
-1121 0
-1119 0
-1118 0
-1116 0
-972 0
-973 0
-975 0
-976 0
-978 0
-979 0
-981 0
-982 0
-984 0
-985 0
-987 0
-988 0
-1115 0
-470 0
-453 0
-436 0
-419 0
-402 0
-385 0
-368 0
-1007 0
-1008 0
-1010 0
-1011 0
-1013 0
-1014 0
-1016 0
-1017 0
-1019 0
-1020 0
-1022 0
-1023 0
-351 0
-334 0
-317 0
-300 0
-283 0
-266 0
-249 0
-232 0
-1042 0
-1043 0
-1045 0
-1046 0
-1048 0
-1049 0
-1051 0
-1052 0
-1054 0
-1055 0
-1057 0
-1058 0
-215 0
-1113 0
-1112 0
-328 0
-345 0
-362 0
-396 0
-464 0
-1077 0
-379 0
-1080 0
-1081 0
-1083 0
-1084 0
-1086 0
-1087 0
-1089 0
-1090 0
-1092 0
-1093 0
-447 0
-430 0
-413 0
-1078 0
-210 0
-161 0
-519 0
-520 0
-169 0
-539 0
-538 0
-191 0
-658 0
-657 0
-508 0
-513 0
-514 0
-516 0
-517 0
-183 0
-639 0
-638 0
-176 0
-555 0
-554 0
-526 0
-530 0
-212 0
-532 0
-533 0
-535 0
-536 0
-507 0
-198 0
-674 0
-673 0
-542 0
-546 0
-548 0
-549 0
-214 0
-227 0
-229 0
-231 0
-244 0
-469 0
-246 0
-467 0
-551 0
-552 0
-529 0
-527 0
-626 0
-627 0
-629 0
-630 0
-632 0
-633 0
-635 0
-636 0
-248 0
-465 0
-452 0
-261 0
-450 0
-263 0
-448 0
-435 0
-524 0
-523 0
-642 0
-643 0
-645 0
-646 0
-648 0
-649 0
-651 0
-652 0
-654 0
-655 0
-265 0
-433 0
-278 0
-431 0
-418 0
-280 0
-416 0
-282 0
-511 0
-510 0
-661 0
-662 0
-664 0
-665 0
-667 0
-668 0
-670 0
-671 0
-545 0
-543 0
-414 0
-401 0
-295 0
-399 0
-297 0
-397 0
-384 0
-299 0
-382 0
-312 0
-380 0
-367 0
-314 0
-365 0
-316 0
-363 0
-350 0
-329 0
-348 0
-331 0
-346 0
-333 0
-160 0
-168 0
-175 0
-182 0
-190 0
-197 0
-193 0
-185 0
-178 0
-171 0
-163 0
-156 0
-159 0
-167 0
-174 0
-181 0
-189 0
-196 0
-157 0
-194 0
-187 0
-164 0
-179 0
-172 0
-186 0
-165 0
-19 -20 0
-23 -22 0
-24 -22 0
-23 -24 0
-27 -26 0
-28 -26 0
-29 -26 0
-27 -28 0
-27 -29 0
-29 -28 0
-31 -32 0
-31 -33 0
-31 -34 0
-31 -35 0
-33 -32 0
-34 -32 0
-35 -32 0
-34 -33 0
-35 -33 0
-35 -34 0
-38 -37 0
-39 -37 0
-40 -37 0
-41 -37 0
-42 -37 0
-39 -38 0
-40 -38 0
-38 -41 0
-42 -38 0
-39 -40 0
-39 -41 0
-39 -42 0
-40 -41 0
-40 -42 0
-42 -41 0
-158 44 46 45 0
-44 -46 0
-45 158 0
-47 -158 0
-47 -50 0
-158 -48 0
-47 -49 0
-49 -48 0
-50 -49 0
-55 -54 0
-52 -54 0
-53 166 0
-166 54 55 52 53 0
-52 -55 0
-166 -56 0
-56 -59 0
-57 -166 0
-58 -56 0
-57 -58 0
-58 -59 0
-62 -63 0
-61 -63 0
-173 61 63 62 0
173 -61 0
-64 -173 0
-64 -67 0
-173 -65 0
-64 -66 0
-65 -66 0
-67 -66 0
-69 -70 0
-69 -71 0
-69 -72 0
-69 -73 0
-69 -74 0
-70 -71 0
-72 -70 0
-70 -73 0
-74 -70 0
-72 -71 0
-73 -71 0
-74 -71 0
-72 -73 0
-74 -72 0
-74 -73 0
-76 -77 0
-76 -78 0
-76 -79 0
-80 -76 0
-78 -77 0
-77 -79 0
-80 -77 0
-78 -79 0
-80 -78 0
-80 -79 0
-82 -83 0
-82 -84 0
-85 -82 0
-83 -84 0
-85 -83 0
-85 -84 0
-87 -88 0
-89 -87 0
-89 -88 0
-92 -91 0
-61 -44 0
-53 -37 0
-69 -37 0
-53 -69 0
-45 -31 0
-62 -31 0
-76 -31 0
-62 -45 0
-45 -76 0
-62 -76 0
-38 -26 0
-54 -26 0
-70 -26 0
-82 -26 0
-38 -54 0
-38 -70 0
-82 -38 0
-54 -70 0
-82 -54 0
-82 -70 0
-22 -32 0
-22 -46 0
-63 -22 0
-77 -22 0
-87 -22 0
-32 -46 0
-63 -32 0
-77 -32 0
-87 -32 0
-63 -46 0
-77 -46 0
-87 -46 0
-63 -77 0
-87 -63 0
-87 -77 0
-39 -27 0
-39 -19 0
-180 27 39 19 0
-19 180 0
-55 -180 0
-55 -91 0
-180 -71 0
-55 -83 0
-83 -71 0
-83 -91 0
-23 188 0
188 -100 0
-100 -33 0
188 -33 0
-23 -47 0
-23 -33 0
-64 -188 0
-64 -101 0
-188 -78 0
-64 -88 0
-88 -78 0
-101 -88 0
-40 -28 0
-40 -20 0
-195 28 20 40 0
-20 195 0
-56 -195 0
-92 -56 0
-195 -72 0
-84 -56 0
-84 -72 0
-92 -84 0
-24 -34 0
-24 -48 0
-24 -65 0
-24 -79 0
-89 -24 0
-34 -48 0
-34 -65 0
-34 -79 0
-89 -34 0
-65 -48 0
-79 -48 0
-89 -48 0
-65 -79 0
-89 -65 0
-89 -79 0
-29 -41 0
-57 -29 0
-29 -73 0
-85 -29 0
-57 -41 0
-41 -73 0
-85 -41 0
-57 -73 0
-85 -57 0
-85 -73 0
-35 -49 0
-35 -66 0
-80 -35 0
-66 -49 0
-80 -49 0
-80 -66 0
-58 -42 0
-74 -42 0
-58 -74 0
-67 -50 0
22 31 37 100 19 44 52 26 0
-52 -37 0
211 -44 0
-211 -31 0
213 -31 0
-213 -22 0
-100 -22 0
-19 -22 0
23 27 45 20 32 38 61 53 0
-45 -61 0
-53 228 0
-228 -38 0
230 -38 0
-27 -230 0
-27 -20 0
-23 -27 0
54 28 24 39 46 33 69 62 0
-69 -54 0
-62 245 0
-245 -46 0
247 -46 0
-247 -33 0
-24 -33 0
-28 -33 0
76 55 29 34 40 47 63 70 0
-76 -63 0
262 -70 0
-55 -262 0
-55 264 0
-40 -264 0
-40 -29 0
-40 -34 0
71 64 35 56 48 41 77 82 0
-82 -71 0
279 -77 0
-64 -279 0
-64 281 0
-281 -48 0
-35 -48 0
-41 -48 0
42 78 57 72 49 65 87 83 0
-87 -78 0
-83 296 0
-296 -72 0
298 -72 0
-57 -298 0
-57 -42 0
-57 -49 0
84 50 66 58 79 88 91 73 0
-88 313 0
-91 313 0
-313 -79 0
315 -79 0
-315 -66 0
-50 -66 0
-58 -66 0
89 85 59 74 67 80 92 101 0
-89 -101 0
330 -92 0
-85 -330 0
-85 332 0
-74 -332 0
-74 -59 0
-74 -67 0
69 101 87 52 91 82 76 61 0
-69 -52 0
-61 347 0
-76 -347 0
-76 349 0
-87 -349 0
-87 -101 0
-87 -91 0
62 92 44 83 53 88 77 70 0
-62 -44 0
-53 364 0
-364 -70 0
366 -70 0
-83 -366 0
-83 -92 0
-83 -88 0
89 54 37 78 63 84 45 71 0
-45 381 0
381 -37 0
-381 -63 0
383 -63 0
-383 -78 0
-89 -78 0
-84 -78 0
85 31 46 72 38 79 64 55 0
-31 -46 0
398 -38 0
-55 -398 0
-55 400 0
-400 -72 0
-85 -72 0
-85 -79 0
26 32 39 65 73 80 47 56 0
-39 -26 0
415 -32 0
-47 -415 0
-47 417 0
-417 -65 0
-80 -65 0
-80 -73 0
22 33 74 57 66 40 48 27 0
-22 -33 0
-27 432 0
-40 -432 0
-40 434 0
-57 -434 0
-57 -74 0
-74 -66 0
23 19 49 67 58 41 34 28 0
-19 -28 0
-23 449 0
-449 -34 0
451 -34 0
-451 -49 0
-67 -49 0
-58 -67 0
59 50 100 29 20 24 35 42 0
-24 -100 0
-20 466 0
-29 -466 0
-29 468 0
-42 -468 0
-42 -59 0
-50 -59 0
-45 -44 0
158 -44 0
-45 -46 0
158 -46 0
-158 -49 0
-158 -50 0
-50 -48 0
-47 -48 0
-53 -52 0
-53 -55 0
-53 -54 0
-52 166 0
166 -54 0
-55 166 0
-58 -166 0
-166 -59 0
-57 -59 0
-57 -56 0
-62 -61 0
-62 173 0
173 -63 0
-173 -66 0
-173 -67 0
-67 -65 0
-64 -65 0
-19 -27 0
-27 180 0
-39 180 0
-83 -180 0
-180 -91 0
-91 -71 0
-55 -71 0
-23 -100 0
-188 23 47 33 100 0
-47 -100 0
-47 -33 0
-47 188 0
-188 -88 0
-188 -101 0
-101 -78 0
-64 -78 0
-20 -28 0
195 -28 0
-40 195 0
-84 -195 0
-92 -195 0
-92 -72 0
-56 -72 0
-52 -44 0
-52 211 0
-44 -37 0
211 -37 0
-211 -26 0
-211 213 0
-31 -26 0
213 -26 0
-19 -213 0
-213 -100 0
-19 -100 0
-53 -61 0
-61 228 0
-53 -45 0
-45 228 0
-228 -32 0
230 -228 0
-38 -32 0
230 -32 0
-23 -230 0
-230 -20 0
-23 -20 0
-69 -62 0
-69 245 0
-62 -54 0
245 -54 0
-39 -245 0
-245 247 0
-39 -46 0
-39 247 0
-247 -28 0
-24 -247 0
-24 -28 0
-76 -70 0
-76 262 0
-63 -70 0
262 -63 0
-47 -262 0
264 -262 0
-47 -55 0
-47 264 0
-264 -34 0
-264 -29 0
-29 -34 0
-82 -77 0
-82 279 0
-77 -71 0
279 -71 0
-56 -279 0
-279 281 0
-64 -56 0
-56 281 0
-281 -41 0
-281 -35 0
-35 -41 0
-83 -87 0
-87 296 0
-83 -78 0
296 -78 0
-296 -65 0
298 -296 0
-72 -65 0
298 -65 0
-298 -49 0
-298 -42 0
-42 -49 0
-88 -91 0
-84 -88 0
-84 -91 0
-84 313 0
-313 -73 0
315 -313 0
-79 -73 0
315 -73 0
-58 -315 0
-315 -50 0
-58 -50 0
-92 -101 0
330 -101 0
-89 -92 0
-89 330 0
-80 -330 0
-330 332 0
-85 -80 0
-80 332 0
-67 -332 0
-59 -332 0
-67 -59 0
-52 -61 0
-52 347 0
-69 -61 0
-69 347 0
-82 -347 0
-347 349 0
-82 -76 0
-82 349 0
-349 -91 0
-101 -349 0
-101 -91 0
-53 -44 0
-44 364 0
-53 -62 0
-62 364 0
-364 -77 0
366 -364 0
-77 -70 0
366 -77 0
-366 -88 0
-92 -366 0
-92 -88 0
-45 -37 0
-45 -54 0
-54 -37 0
381 -54 0
-381 -71 0
-381 383 0
-63 -71 0
383 -71 0
-84 -383 0
-89 -383 0
-89 -84 0
-31 -38 0
398 -31 0
-38 -46 0
398 -46 0
-64 -398 0
-398 400 0
-64 -55 0
-64 400 0
-400 -79 0
-85 -400 0
-72 -79 0
-26 -32 0
415 -26 0
-39 -32 0
-39 415 0
-56 -415 0
-415 417 0
-47 -56 0
-56 417 0
-417 -73 0
-80 -417 0
-65 -73 0
-27 -22 0
432 -22 0
-27 -33 0
432 -33 0
-432 -48 0
-432 434 0
-40 -48 0
434 -48 0
-434 -66 0
-74 -434 0
-57 -66 0
-23 -19 0
-19 449 0
-23 -28 0
449 -28 0
-449 -41 0
-449 451 0
-41 -34 0
451 -41 0
-58 -451 0
-67 -451 0
-58 -49 0
-20 -100 0
-100 466 0
-24 -20 0
-24 466 0
-35 -466 0
468 -466 0
-29 -35 0
-35 468 0
-50 -468 0
-468 -59 0
-50 -42 0
